solution status: optimal solution found
objective value:                                   13
x28                                                 1 	(obj:1)
x30                                                 1 	(obj:1)
x31                                                 1 	(obj:1)
x32                                                 1 	(obj:1)
x41                                                 1 	(obj:1)
x42                                                 1 	(obj:1)
x43                                                 1 	(obj:1)
x44                                                 1 	(obj:1)
x46                                                 1 	(obj:1)
x48                                                 1 	(obj:1)
x49                                                 1 	(obj:1)
x50                                                 1 	(obj:1)
x56                                                 1 	(obj:1)
$_19__5_y                                         -22 	(obj:0)
$_19__5_z                                          20 	(obj:0)
$_20__5_y                                          -3 	(obj:0)
$_20__5_z                                          19 	(obj:0)
$_21__5_y                                          -3 	(obj:0)
$_21__5_z                                          22 	(obj:0)
$_25__5_y                                           7 	(obj:0)
$_25__5_z                                          18 	(obj:0)
$_24__5_y                                          21 	(obj:0)
$_24__5_z                                          17 	(obj:0)
one.thingy.devices[1].thingy.vs0_y                   20 	(obj:0)
one.thingy.devices[1].thingy.vs0_z                   21 	(obj:0)
$_22__5_y                                           7 	(obj:0)
$_22__5_z                                          20 	(obj:0)
$_18__5_y                                          -3 	(obj:0)
$_18__5_z                                          20 	(obj:0)
$_23__5_y                                           6 	(obj:0)
$_23__5_z                                          19 	(obj:0)
one.thingy.devices[0].thingy.vs0_y                   21 	(obj:0)
one.thingy.devices[0].thingy.vs0_z                   21 	(obj:0)
one.thingy.devices[2].thingy.vs0_y                   22 	(obj:0)
one.thingy.devices[2].thingy.vs0_z                   21 	(obj:0)
one.thingy.devices[3].thingy.vs0_y                   21 	(obj:0)
one.thingy.devices[3].thingy.vs0_z                   20 	(obj:0)
